56720
50, 35, 24, 8, 38, 44, 32, 41, 19, 48, 17, 53, 54, 34, 47, 30, 4, 18, 12, 14, 9, 2, 42, 33, 1, 27, 25, 31, 11, 45, 52, 15, 36, 39, 46, 16, 10, 22, 29, 21, 23, 26, 49, 28, 55, 6, 3, 43, 40, 51, 13, 5, 37, 7, 20
